n_students = 4;
n_companies = 4;
best_expectations = [5, 3, 4, 3];
preferences = [|3, 4, 1, 1
 |2, 4, 4, 1
 |3, 4, 3, 5
 |5, 2, 3, 1
 |];

min_capacities = [1, 1, 1, 1];
max_capacities = [10, 6, 3, 7];
attendance_costs = [20, 20, 10, 30];
parallel_limits = [2, 1, 2, 1];

slots = [{15, 16, 17, 18, 19, 20},
 {1, 2, 3, 4, 5, 6},
 {1, 2, 7, 8, 9, 10, 11},
 {7, 8, 9, 10, 11}
];